proyfinal/src/viki/013/andrea/andrea-localstore/experimentInOfficeAgust.take6/worker_1/de0191d2-b842-400d-a99c-b28de70071e4.als.cnf.out
Reading from standard input... Use '--help' for help.
============================[ Problem Statistics ]=============================
|                                                                             |
|  Number of variables:         87638                                         |
|  Number of clauses:          161767                                         |
|  Parse time:                   0.03 s                                       |
|                                                                             |
============================[ Search Statistics ]==============================
| Conflicts |          ORIGINAL         |          LEARNT          | Progress |
|           |    Vars  Clauses Literals |    Limit  Clauses Lit/Cl |          |
===============================================================================
|       100 |   63377   109068   271788 |    39991      100      9 | 27.683 % |
|       250 |   63377   109068   271788 |    43990      250     31 | 27.683 % |
|       475 |   63377   109068   271788 |    48389      475     43 | 27.683 % |
|       812 |   63377   109068   271788 |    53228      812     56 | 27.683 % |
|      1318 |   63359   108994   271617 |    58551     1317     60 | 27.704 % |
|      2077 |   63359   108994   271617 |    64406     2076     68 | 27.704 % |
|      3216 |   58546    93377   233144 |    70847     3196     71 | 33.196 % |
|      4924 |   58273    92293   230573 |    77932     4878     66 | 33.507 % |
|      7486 |   58242    92165   230276 |    85725     7438     65 | 33.543 % |
|     11330 |   58109    91546   228867 |    94298    10256     63 | 33.694 % |
|     17096 |   57974    90938   227414 |   103727    15987     66 | 33.848 % |
===============================================================================
restarts              : 75
conflicts             : 20979          (8689 /sec)
decisions             : 61210          (0.00 % random) (25352 /sec)
propagations          : 25516610       (10568287 /sec)
conflict literals     : 1333549        (45.40 % deleted)
Memory used           : 26.94 MB
CPU time              : 2.41445 s

INDETERMINATE
